nohup: ignoring input
miplib2017_binary_open-small
symmetric
./result/miplib2017/miplib2017_purebinary_open.txt
original problem has 2048 variables (2048 bin, 0 int, 0 impl, 0 cont) and 504451 constraints
sorrell4


miplib2017_binary_open-105
Number of variables 2048
Number of binary variables 2048
* Model status: sollimit
* Solving time: 3.344598
* number of sol :  1
* Model status: nodelimit
* Solving time: 962.166138
* number of sol :  1
wrote problem to file /home/liudefen/projects/ML4LocalBranch_extend/data/generated_instances/miplib2017_binary_open/-small/transformedmodel/miplib2017_binary_open-105_transformed.mps
original problem has 2048 variables (2048 bin, 0 int, 0 impl, 0 cont) and 504451 constraints
0.0
0.0
original problem has 2048 variables (2048 bin, 0 int, 0 impl, 0 cont) and 78848 constraints
sorrell7


miplib2017_binary_open-106
Number of variables 2048
Number of binary variables 2048
* Model status: sollimit
* Solving time: 1.479929
* number of sol :  1
* Model status: nodelimit
* Solving time: 157.838693
* number of sol :  1
wrote problem to file /home/liudefen/projects/ML4LocalBranch_extend/data/generated_instances/miplib2017_binary_open/-small/transformedmodel/miplib2017_binary_open-106_transformed.mps
original problem has 2048 variables (2048 bin, 0 int, 0 impl, 0 cont) and 78848 constraints
0.0
0.0
original problem has 2187 variables (2187 bin, 0 int, 0 impl, 0 cont) and 2187 constraints
ramos3


miplib2017_binary_open-107
Number of variables 2187
Number of binary variables 2187
* Model status: sollimit
* Solving time: 0.050165999999999995
* number of sol :  1
* Model status: sollimit
* Solving time: 0.031557
* number of sol :  2
wrote problem to file /home/liudefen/projects/ML4LocalBranch_extend/data/generated_instances/miplib2017_binary_open/-small/transformedmodel/miplib2017_binary_open-107_transformed.mps
original problem has 2187 variables (2187 bin, 0 int, 0 impl, 0 cont) and 2187 constraints
242.0
242.0
original problem has 2700 variables (2700 bin, 0 int, 0 impl, 0 cont) and 42620 constraints
circ10-3


miplib2017_binary_open-108
Number of variables 2700
Number of binary variables 2700
* Model status: timelimit
* Solving time: 7200.006177
* number of sol :  0
* Model status: timelimit
* Solving time: 7200.001279
* number of sol :  0
original problem has 2912 variables (2912 bin, 0 int, 0 impl, 0 cont) and 597385 constraints
supportcase2


miplib2017_binary_open-108
Number of variables 2912
Number of binary variables 2912
* Model status: timelimit
* Solving time: 7200.01871
* number of sol :  0
* Model status: timelimit
* Solving time: 7200.146368
* number of sol :  0
original problem has 4000 variables (4000 bin, 0 int, 0 impl, 0 cont) and 10500 constraints
f2000


miplib2017_binary_open-108
Number of variables 4000
Number of binary variables 4000
